0001 13
0002 11
0003 6
0004 8
0005 7
0006 5
0007 7
0008 12
0009 9
0010 10
0011 1
0012 4
0013 2
0014 12
0015 12
0016 6
0017 3
0018 6
0019 14
0020 17
0021 9
0022 13
0023 7
0024 16
0025 5
0026 1
0027 15
0028 10
0029 4
0030 18
0031 2
0032 8
0033 11
0034 2
0035 18
0036 3
0037 9
0038 12
0039 3
0040 1
0041 4
0042 10
0043 2
0044 13
0045 9
0046 14
0047 12
0048 7
0049 8
0050 16
0051 17
0052 11
0053 5
0054 8
0055 6
0056 11
0057 4
0058 10
0059 12
0060 1
0061 7
0062 18
0063 1
0064 3
0065 6
0066 18
0067 1
0068 10
0069 5
0070 15
0071 2
0072 11
0073 5
0074 6
0075 12
0076 2
0077 13
0078 4
0079 3
0080 1
0081 7
